c
c Generated WCNF file
c
p wcnf 529 2545 67710
67710 33 0
67710 -34 1 0
67710 -34 2 0
67710 34 -1 -2 0
67710 -35 1 0
67710 -35 3 0
67710 35 -1 -3 0
67710 -36 1 0
67710 -36 4 0
67710 36 -1 -4 0
67710 -37 1 0
67710 -37 5 0
67710 37 -1 -5 0
67710 -38 1 0
67710 -38 6 0
67710 38 -1 -6 0
67710 -39 1 0
67710 -39 7 0
67710 39 -1 -7 0
67710 -40 1 0
67710 -40 8 0
67710 40 -1 -8 0
67710 -41 1 0
67710 -41 9 0
67710 41 -1 -9 0
67710 -42 1 0
67710 -42 10 0
67710 42 -1 -10 0
67710 -43 1 0
67710 -43 11 0
67710 43 -1 -11 0
67710 -44 1 0
67710 -44 12 0
67710 44 -1 -12 0
67710 -45 1 0
67710 -45 13 0
67710 45 -1 -13 0
67710 -46 1 0
67710 -46 14 0
67710 46 -1 -14 0
67710 -47 1 0
67710 -47 15 0
67710 47 -1 -15 0
67710 -48 1 0
67710 -48 16 0
67710 48 -1 -16 0
67710 -49 1 0
67710 -49 17 0
67710 49 -1 -17 0
67710 -50 1 0
67710 -50 18 0
67710 50 -1 -18 0
67710 -51 1 0
67710 -51 19 0
67710 51 -1 -19 0
67710 -52 1 0
67710 -52 20 0
67710 52 -1 -20 0
67710 -53 1 0
67710 -53 21 0
67710 53 -1 -21 0
67710 -54 1 0
67710 -54 22 0
67710 54 -1 -22 0
67710 -55 1 0
67710 -55 23 0
67710 55 -1 -23 0
67710 -56 1 0
67710 -56 24 0
67710 56 -1 -24 0
67710 -57 1 0
67710 -57 25 0
67710 57 -1 -25 0
67710 -58 1 0
67710 -58 26 0
67710 58 -1 -26 0
67710 -59 1 0
67710 -59 27 0
67710 59 -1 -27 0
67710 -60 1 0
67710 -60 28 0
67710 60 -1 -28 0
67710 -61 1 0
67710 -61 29 0
67710 61 -1 -29 0
67710 -62 1 0
67710 -62 30 0
67710 62 -1 -30 0
67710 -63 1 0
67710 -63 31 0
67710 63 -1 -31 0
67710 -64 1 0
67710 -64 32 0
67710 64 -1 -32 0
67710 -65 2 0
67710 -65 3 0
67710 65 -2 -3 0
67710 -66 2 0
67710 -66 4 0
67710 66 -2 -4 0
67710 -67 2 0
67710 -67 5 0
67710 67 -2 -5 0
67710 -68 2 0
67710 -68 6 0
67710 68 -2 -6 0
67710 -69 2 0
67710 -69 7 0
67710 69 -2 -7 0
67710 -70 2 0
67710 -70 8 0
67710 70 -2 -8 0
67710 -71 2 0
67710 -71 9 0
67710 71 -2 -9 0
67710 -72 2 0
67710 -72 10 0
67710 72 -2 -10 0
67710 -73 2 0
67710 -73 11 0
67710 73 -2 -11 0
67710 -74 2 0
67710 -74 12 0
67710 74 -2 -12 0
67710 -75 2 0
67710 -75 13 0
67710 75 -2 -13 0
67710 -76 2 0
67710 -76 14 0
67710 76 -2 -14 0
67710 -77 2 0
67710 -77 15 0
67710 77 -2 -15 0
67710 -78 2 0
67710 -78 16 0
67710 78 -2 -16 0
67710 -79 2 0
67710 -79 17 0
67710 79 -2 -17 0
67710 -80 2 0
67710 -80 18 0
67710 80 -2 -18 0
67710 -81 2 0
67710 -81 19 0
67710 81 -2 -19 0
67710 -82 2 0
67710 -82 20 0
67710 82 -2 -20 0
67710 -83 2 0
67710 -83 21 0
67710 83 -2 -21 0
67710 -84 2 0
67710 -84 22 0
67710 84 -2 -22 0
67710 -85 2 0
67710 -85 23 0
67710 85 -2 -23 0
67710 -86 2 0
67710 -86 24 0
67710 86 -2 -24 0
67710 -87 2 0
67710 -87 25 0
67710 87 -2 -25 0
67710 -88 2 0
67710 -88 26 0
67710 88 -2 -26 0
67710 -89 2 0
67710 -89 27 0
67710 89 -2 -27 0
67710 -90 2 0
67710 -90 28 0
67710 90 -2 -28 0
67710 -91 2 0
67710 -91 29 0
67710 91 -2 -29 0
67710 -92 2 0
67710 -92 30 0
67710 92 -2 -30 0
67710 -93 2 0
67710 -93 31 0
67710 93 -2 -31 0
67710 -94 2 0
67710 -94 32 0
67710 94 -2 -32 0
67710 -95 3 0
67710 -95 4 0
67710 95 -3 -4 0
67710 -96 3 0
67710 -96 5 0
67710 96 -3 -5 0
67710 -97 3 0
67710 -97 6 0
67710 97 -3 -6 0
67710 -98 3 0
67710 -98 7 0
67710 98 -3 -7 0
67710 -99 3 0
67710 -99 8 0
67710 99 -3 -8 0
67710 -100 3 0
67710 -100 9 0
67710 100 -3 -9 0
67710 -101 3 0
67710 -101 10 0
67710 101 -3 -10 0
67710 -102 3 0
67710 -102 11 0
67710 102 -3 -11 0
67710 -103 3 0
67710 -103 12 0
67710 103 -3 -12 0
67710 -104 3 0
67710 -104 13 0
67710 104 -3 -13 0
67710 -105 3 0
67710 -105 14 0
67710 105 -3 -14 0
67710 -106 3 0
67710 -106 15 0
67710 106 -3 -15 0
67710 -107 3 0
67710 -107 16 0
67710 107 -3 -16 0
67710 -108 3 0
67710 -108 17 0
67710 108 -3 -17 0
67710 -109 3 0
67710 -109 18 0
67710 109 -3 -18 0
67710 -110 3 0
67710 -110 19 0
67710 110 -3 -19 0
67710 -111 3 0
67710 -111 20 0
67710 111 -3 -20 0
67710 -112 3 0
67710 -112 21 0
67710 112 -3 -21 0
67710 -113 3 0
67710 -113 22 0
67710 113 -3 -22 0
67710 -114 3 0
67710 -114 23 0
67710 114 -3 -23 0
67710 -115 3 0
67710 -115 24 0
67710 115 -3 -24 0
67710 -116 3 0
67710 -116 25 0
67710 116 -3 -25 0
67710 -117 3 0
67710 -117 26 0
67710 117 -3 -26 0
67710 -118 3 0
67710 -118 27 0
67710 118 -3 -27 0
67710 -119 3 0
67710 -119 28 0
67710 119 -3 -28 0
67710 -120 3 0
67710 -120 29 0
67710 120 -3 -29 0
67710 -121 3 0
67710 -121 30 0
67710 121 -3 -30 0
67710 -122 3 0
67710 -122 31 0
67710 122 -3 -31 0
67710 -123 3 0
67710 -123 32 0
67710 123 -3 -32 0
67710 -124 4 0
67710 -124 5 0
67710 124 -4 -5 0
67710 -125 4 0
67710 -125 6 0
67710 125 -4 -6 0
67710 -126 4 0
67710 -126 7 0
67710 126 -4 -7 0
67710 -127 4 0
67710 -127 8 0
67710 127 -4 -8 0
67710 -128 4 0
67710 -128 9 0
67710 128 -4 -9 0
67710 -129 4 0
67710 -129 10 0
67710 129 -4 -10 0
67710 -130 4 0
67710 -130 11 0
67710 130 -4 -11 0
67710 -131 4 0
67710 -131 12 0
67710 131 -4 -12 0
67710 -132 4 0
67710 -132 13 0
67710 132 -4 -13 0
67710 -133 4 0
67710 -133 14 0
67710 133 -4 -14 0
67710 -134 4 0
67710 -134 15 0
67710 134 -4 -15 0
67710 -135 4 0
67710 -135 16 0
67710 135 -4 -16 0
67710 -136 4 0
67710 -136 17 0
67710 136 -4 -17 0
67710 -137 4 0
67710 -137 18 0
67710 137 -4 -18 0
67710 -138 4 0
67710 -138 19 0
67710 138 -4 -19 0
67710 -139 4 0
67710 -139 20 0
67710 139 -4 -20 0
67710 -140 4 0
67710 -140 21 0
67710 140 -4 -21 0
67710 -141 4 0
67710 -141 22 0
67710 141 -4 -22 0
67710 -142 4 0
67710 -142 23 0
67710 142 -4 -23 0
67710 -143 4 0
67710 -143 24 0
67710 143 -4 -24 0
67710 -144 4 0
67710 -144 25 0
67710 144 -4 -25 0
67710 -145 4 0
67710 -145 26 0
67710 145 -4 -26 0
67710 -146 4 0
67710 -146 27 0
67710 146 -4 -27 0
67710 -147 4 0
67710 -147 28 0
67710 147 -4 -28 0
67710 -148 4 0
67710 -148 29 0
67710 148 -4 -29 0
67710 -149 4 0
67710 -149 30 0
67710 149 -4 -30 0
67710 -150 4 0
67710 -150 31 0
67710 150 -4 -31 0
67710 -151 4 0
67710 -151 32 0
67710 151 -4 -32 0
67710 -152 5 0
67710 -152 6 0
67710 152 -5 -6 0
67710 -153 5 0
67710 -153 7 0
67710 153 -5 -7 0
67710 -154 5 0
67710 -154 8 0
67710 154 -5 -8 0
67710 -155 5 0
67710 -155 9 0
67710 155 -5 -9 0
67710 -156 5 0
67710 -156 10 0
67710 156 -5 -10 0
67710 -157 5 0
67710 -157 11 0
67710 157 -5 -11 0
67710 -158 5 0
67710 -158 12 0
67710 158 -5 -12 0
67710 -159 5 0
67710 -159 13 0
67710 159 -5 -13 0
67710 -160 5 0
67710 -160 14 0
67710 160 -5 -14 0
67710 -161 5 0
67710 -161 15 0
67710 161 -5 -15 0
67710 -162 5 0
67710 -162 16 0
67710 162 -5 -16 0
67710 -163 5 0
67710 -163 17 0
67710 163 -5 -17 0
67710 -164 5 0
67710 -164 18 0
67710 164 -5 -18 0
67710 -165 5 0
67710 -165 19 0
67710 165 -5 -19 0
67710 -166 5 0
67710 -166 20 0
67710 166 -5 -20 0
67710 -167 5 0
67710 -167 21 0
67710 167 -5 -21 0
67710 -168 5 0
67710 -168 22 0
67710 168 -5 -22 0
67710 -169 5 0
67710 -169 23 0
67710 169 -5 -23 0
67710 -170 5 0
67710 -170 24 0
67710 170 -5 -24 0
67710 -171 5 0
67710 -171 25 0
67710 171 -5 -25 0
67710 -172 5 0
67710 -172 26 0
67710 172 -5 -26 0
67710 -173 5 0
67710 -173 27 0
67710 173 -5 -27 0
67710 -174 5 0
67710 -174 28 0
67710 174 -5 -28 0
67710 -175 5 0
67710 -175 29 0
67710 175 -5 -29 0
67710 -176 5 0
67710 -176 30 0
67710 176 -5 -30 0
67710 -177 5 0
67710 -177 31 0
67710 177 -5 -31 0
67710 -178 5 0
67710 -178 32 0
67710 178 -5 -32 0
67710 -179 6 0
67710 -179 7 0
67710 179 -6 -7 0
67710 -180 6 0
67710 -180 8 0
67710 180 -6 -8 0
67710 -181 6 0
67710 -181 9 0
67710 181 -6 -9 0
67710 -182 6 0
67710 -182 10 0
67710 182 -6 -10 0
67710 -183 6 0
67710 -183 11 0
67710 183 -6 -11 0
67710 -184 6 0
67710 -184 12 0
67710 184 -6 -12 0
67710 -185 6 0
67710 -185 13 0
67710 185 -6 -13 0
67710 -186 6 0
67710 -186 14 0
67710 186 -6 -14 0
67710 -187 6 0
67710 -187 15 0
67710 187 -6 -15 0
67710 -188 6 0
67710 -188 16 0
67710 188 -6 -16 0
67710 -189 6 0
67710 -189 17 0
67710 189 -6 -17 0
67710 -190 6 0
67710 -190 18 0
67710 190 -6 -18 0
67710 -191 6 0
67710 -191 19 0
67710 191 -6 -19 0
67710 -192 6 0
67710 -192 20 0
67710 192 -6 -20 0
67710 -193 6 0
67710 -193 21 0
67710 193 -6 -21 0
67710 -194 6 0
67710 -194 22 0
67710 194 -6 -22 0
67710 -195 6 0
67710 -195 23 0
67710 195 -6 -23 0
67710 -196 6 0
67710 -196 24 0
67710 196 -6 -24 0
67710 -197 6 0
67710 -197 25 0
67710 197 -6 -25 0
67710 -198 6 0
67710 -198 26 0
67710 198 -6 -26 0
67710 -199 6 0
67710 -199 27 0
67710 199 -6 -27 0
67710 -200 6 0
67710 -200 28 0
67710 200 -6 -28 0
67710 -201 6 0
67710 -201 29 0
67710 201 -6 -29 0
67710 -202 6 0
67710 -202 30 0
67710 202 -6 -30 0
67710 -203 6 0
67710 -203 31 0
67710 203 -6 -31 0
67710 -204 6 0
67710 -204 32 0
67710 204 -6 -32 0
67710 -205 7 0
67710 -205 8 0
67710 205 -7 -8 0
67710 -206 7 0
67710 -206 9 0
67710 206 -7 -9 0
67710 -207 7 0
67710 -207 10 0
67710 207 -7 -10 0
67710 -208 7 0
67710 -208 11 0
67710 208 -7 -11 0
67710 -209 7 0
67710 -209 12 0
67710 209 -7 -12 0
67710 -210 7 0
67710 -210 13 0
67710 210 -7 -13 0
67710 -211 7 0
67710 -211 14 0
67710 211 -7 -14 0
67710 -212 7 0
67710 -212 15 0
67710 212 -7 -15 0
67710 -213 7 0
67710 -213 16 0
67710 213 -7 -16 0
67710 -214 7 0
67710 -214 17 0
67710 214 -7 -17 0
67710 -215 7 0
67710 -215 18 0
67710 215 -7 -18 0
67710 -216 7 0
67710 -216 19 0
67710 216 -7 -19 0
67710 -217 7 0
67710 -217 20 0
67710 217 -7 -20 0
67710 -218 7 0
67710 -218 21 0
67710 218 -7 -21 0
67710 -219 7 0
67710 -219 22 0
67710 219 -7 -22 0
67710 -220 7 0
67710 -220 23 0
67710 220 -7 -23 0
67710 -221 7 0
67710 -221 24 0
67710 221 -7 -24 0
67710 -222 7 0
67710 -222 25 0
67710 222 -7 -25 0
67710 -223 7 0
67710 -223 26 0
67710 223 -7 -26 0
67710 -224 7 0
67710 -224 27 0
67710 224 -7 -27 0
67710 -225 7 0
67710 -225 28 0
67710 225 -7 -28 0
67710 -226 7 0
67710 -226 29 0
67710 226 -7 -29 0
67710 -227 7 0
67710 -227 30 0
67710 227 -7 -30 0
67710 -228 7 0
67710 -228 31 0
67710 228 -7 -31 0
67710 -229 7 0
67710 -229 32 0
67710 229 -7 -32 0
67710 -230 8 0
67710 -230 9 0
67710 230 -8 -9 0
67710 -231 8 0
67710 -231 10 0
67710 231 -8 -10 0
67710 -232 8 0
67710 -232 11 0
67710 232 -8 -11 0
67710 -233 8 0
67710 -233 12 0
67710 233 -8 -12 0
67710 -234 8 0
67710 -234 13 0
67710 234 -8 -13 0
67710 -235 8 0
67710 -235 14 0
67710 235 -8 -14 0
67710 -236 8 0
67710 -236 15 0
67710 236 -8 -15 0
67710 -237 8 0
67710 -237 16 0
67710 237 -8 -16 0
67710 -238 8 0
67710 -238 17 0
67710 238 -8 -17 0
67710 -239 8 0
67710 -239 18 0
67710 239 -8 -18 0
67710 -240 8 0
67710 -240 19 0
67710 240 -8 -19 0
67710 -241 8 0
67710 -241 20 0
67710 241 -8 -20 0
67710 -242 8 0
67710 -242 21 0
67710 242 -8 -21 0
67710 -243 8 0
67710 -243 22 0
67710 243 -8 -22 0
67710 -244 8 0
67710 -244 23 0
67710 244 -8 -23 0
67710 -245 8 0
67710 -245 24 0
67710 245 -8 -24 0
67710 -246 8 0
67710 -246 25 0
67710 246 -8 -25 0
67710 -247 8 0
67710 -247 26 0
67710 247 -8 -26 0
67710 -248 8 0
67710 -248 27 0
67710 248 -8 -27 0
67710 -249 8 0
67710 -249 28 0
67710 249 -8 -28 0
67710 -250 8 0
67710 -250 29 0
67710 250 -8 -29 0
67710 -251 8 0
67710 -251 30 0
67710 251 -8 -30 0
67710 -252 8 0
67710 -252 31 0
67710 252 -8 -31 0
67710 -253 8 0
67710 -253 32 0
67710 253 -8 -32 0
67710 -254 9 0
67710 -254 10 0
67710 254 -9 -10 0
67710 -255 9 0
67710 -255 11 0
67710 255 -9 -11 0
67710 -256 9 0
67710 -256 12 0
67710 256 -9 -12 0
67710 -257 9 0
67710 -257 13 0
67710 257 -9 -13 0
67710 -258 9 0
67710 -258 14 0
67710 258 -9 -14 0
67710 -259 9 0
67710 -259 15 0
67710 259 -9 -15 0
67710 -260 9 0
67710 -260 16 0
67710 260 -9 -16 0
67710 -261 9 0
67710 -261 17 0
67710 261 -9 -17 0
67710 -262 9 0
67710 -262 18 0
67710 262 -9 -18 0
67710 -263 9 0
67710 -263 19 0
67710 263 -9 -19 0
67710 -264 9 0
67710 -264 20 0
67710 264 -9 -20 0
67710 -265 9 0
67710 -265 21 0
67710 265 -9 -21 0
67710 -266 9 0
67710 -266 22 0
67710 266 -9 -22 0
67710 -267 9 0
67710 -267 23 0
67710 267 -9 -23 0
67710 -268 9 0
67710 -268 24 0
67710 268 -9 -24 0
67710 -269 9 0
67710 -269 25 0
67710 269 -9 -25 0
67710 -270 9 0
67710 -270 26 0
67710 270 -9 -26 0
67710 -271 9 0
67710 -271 27 0
67710 271 -9 -27 0
67710 -272 9 0
67710 -272 28 0
67710 272 -9 -28 0
67710 -273 9 0
67710 -273 29 0
67710 273 -9 -29 0
67710 -274 9 0
67710 -274 30 0
67710 274 -9 -30 0
67710 -275 9 0
67710 -275 31 0
67710 275 -9 -31 0
67710 -276 9 0
67710 -276 32 0
67710 276 -9 -32 0
67710 -277 10 0
67710 -277 11 0
67710 277 -10 -11 0
67710 -278 10 0
67710 -278 12 0
67710 278 -10 -12 0
67710 -279 10 0
67710 -279 13 0
67710 279 -10 -13 0
67710 -280 10 0
67710 -280 14 0
67710 280 -10 -14 0
67710 -281 10 0
67710 -281 15 0
67710 281 -10 -15 0
67710 -282 10 0
67710 -282 16 0
67710 282 -10 -16 0
67710 -283 10 0
67710 -283 17 0
67710 283 -10 -17 0
67710 -284 10 0
67710 -284 18 0
67710 284 -10 -18 0
67710 -285 10 0
67710 -285 19 0
67710 285 -10 -19 0
67710 -286 10 0
67710 -286 20 0
67710 286 -10 -20 0
67710 -287 10 0
67710 -287 21 0
67710 287 -10 -21 0
67710 -288 10 0
67710 -288 22 0
67710 288 -10 -22 0
67710 -289 10 0
67710 -289 23 0
67710 289 -10 -23 0
67710 -290 10 0
67710 -290 24 0
67710 290 -10 -24 0
67710 -291 10 0
67710 -291 25 0
67710 291 -10 -25 0
67710 -292 10 0
67710 -292 26 0
67710 292 -10 -26 0
67710 -293 10 0
67710 -293 27 0
67710 293 -10 -27 0
67710 -294 10 0
67710 -294 28 0
67710 294 -10 -28 0
67710 -295 10 0
67710 -295 29 0
67710 295 -10 -29 0
67710 -296 10 0
67710 -296 30 0
67710 296 -10 -30 0
67710 -297 10 0
67710 -297 31 0
67710 297 -10 -31 0
67710 -298 10 0
67710 -298 32 0
67710 298 -10 -32 0
67710 -299 11 0
67710 -299 12 0
67710 299 -11 -12 0
67710 -300 11 0
67710 -300 13 0
67710 300 -11 -13 0
67710 -301 11 0
67710 -301 14 0
67710 301 -11 -14 0
67710 -302 11 0
67710 -302 15 0
67710 302 -11 -15 0
67710 -303 11 0
67710 -303 16 0
67710 303 -11 -16 0
67710 -304 11 0
67710 -304 17 0
67710 304 -11 -17 0
67710 -305 11 0
67710 -305 18 0
67710 305 -11 -18 0
67710 -306 11 0
67710 -306 19 0
67710 306 -11 -19 0
67710 -307 11 0
67710 -307 20 0
67710 307 -11 -20 0
67710 -308 11 0
67710 -308 21 0
67710 308 -11 -21 0
67710 -309 11 0
67710 -309 22 0
67710 309 -11 -22 0
67710 -310 11 0
67710 -310 23 0
67710 310 -11 -23 0
67710 -311 11 0
67710 -311 24 0
67710 311 -11 -24 0
67710 -312 11 0
67710 -312 25 0
67710 312 -11 -25 0
67710 -313 11 0
67710 -313 26 0
67710 313 -11 -26 0
67710 -314 11 0
67710 -314 27 0
67710 314 -11 -27 0
67710 -315 11 0
67710 -315 28 0
67710 315 -11 -28 0
67710 -316 11 0
67710 -316 29 0
67710 316 -11 -29 0
67710 -317 11 0
67710 -317 30 0
67710 317 -11 -30 0
67710 -318 11 0
67710 -318 31 0
67710 318 -11 -31 0
67710 -319 11 0
67710 -319 32 0
67710 319 -11 -32 0
67710 -320 12 0
67710 -320 13 0
67710 320 -12 -13 0
67710 -321 12 0
67710 -321 14 0
67710 321 -12 -14 0
67710 -322 12 0
67710 -322 15 0
67710 322 -12 -15 0
67710 -323 12 0
67710 -323 16 0
67710 323 -12 -16 0
67710 -324 12 0
67710 -324 17 0
67710 324 -12 -17 0
67710 -325 12 0
67710 -325 18 0
67710 325 -12 -18 0
67710 -326 12 0
67710 -326 19 0
67710 326 -12 -19 0
67710 -327 12 0
67710 -327 20 0
67710 327 -12 -20 0
67710 -328 12 0
67710 -328 21 0
67710 328 -12 -21 0
67710 -329 12 0
67710 -329 22 0
67710 329 -12 -22 0
67710 -330 12 0
67710 -330 23 0
67710 330 -12 -23 0
67710 -331 12 0
67710 -331 24 0
67710 331 -12 -24 0
67710 -332 12 0
67710 -332 25 0
67710 332 -12 -25 0
67710 -333 12 0
67710 -333 26 0
67710 333 -12 -26 0
67710 -334 12 0
67710 -334 27 0
67710 334 -12 -27 0
67710 -335 12 0
67710 -335 28 0
67710 335 -12 -28 0
67710 -336 12 0
67710 -336 29 0
67710 336 -12 -29 0
67710 -337 12 0
67710 -337 30 0
67710 337 -12 -30 0
67710 -338 12 0
67710 -338 31 0
67710 338 -12 -31 0
67710 -339 12 0
67710 -339 32 0
67710 339 -12 -32 0
67710 -340 13 0
67710 -340 14 0
67710 340 -13 -14 0
67710 -341 13 0
67710 -341 15 0
67710 341 -13 -15 0
67710 -342 13 0
67710 -342 16 0
67710 342 -13 -16 0
67710 -343 13 0
67710 -343 17 0
67710 343 -13 -17 0
67710 -344 13 0
67710 -344 18 0
67710 344 -13 -18 0
67710 -345 13 0
67710 -345 19 0
67710 345 -13 -19 0
67710 -346 13 0
67710 -346 20 0
67710 346 -13 -20 0
67710 -347 13 0
67710 -347 21 0
67710 347 -13 -21 0
67710 -348 13 0
67710 -348 22 0
67710 348 -13 -22 0
67710 -349 13 0
67710 -349 23 0
67710 349 -13 -23 0
67710 -350 13 0
67710 -350 24 0
67710 350 -13 -24 0
67710 -351 13 0
67710 -351 25 0
67710 351 -13 -25 0
67710 -352 13 0
67710 -352 26 0
67710 352 -13 -26 0
67710 -353 13 0
67710 -353 27 0
67710 353 -13 -27 0
67710 -354 13 0
67710 -354 28 0
67710 354 -13 -28 0
67710 -355 13 0
67710 -355 29 0
67710 355 -13 -29 0
67710 -356 13 0
67710 -356 30 0
67710 356 -13 -30 0
67710 -357 13 0
67710 -357 31 0
67710 357 -13 -31 0
67710 -358 13 0
67710 -358 32 0
67710 358 -13 -32 0
67710 -359 14 0
67710 -359 15 0
67710 359 -14 -15 0
67710 -360 14 0
67710 -360 16 0
67710 360 -14 -16 0
67710 -361 14 0
67710 -361 17 0
67710 361 -14 -17 0
67710 -362 14 0
67710 -362 18 0
67710 362 -14 -18 0
67710 -363 14 0
67710 -363 19 0
67710 363 -14 -19 0
67710 -364 14 0
67710 -364 20 0
67710 364 -14 -20 0
67710 -365 14 0
67710 -365 21 0
67710 365 -14 -21 0
67710 -366 14 0
67710 -366 22 0
67710 366 -14 -22 0
67710 -367 14 0
67710 -367 23 0
67710 367 -14 -23 0
67710 -368 14 0
67710 -368 24 0
67710 368 -14 -24 0
67710 -369 14 0
67710 -369 25 0
67710 369 -14 -25 0
67710 -370 14 0
67710 -370 26 0
67710 370 -14 -26 0
67710 -371 14 0
67710 -371 27 0
67710 371 -14 -27 0
67710 -372 14 0
67710 -372 28 0
67710 372 -14 -28 0
67710 -373 14 0
67710 -373 29 0
67710 373 -14 -29 0
67710 -374 14 0
67710 -374 30 0
67710 374 -14 -30 0
67710 -375 14 0
67710 -375 31 0
67710 375 -14 -31 0
67710 -376 14 0
67710 -376 32 0
67710 376 -14 -32 0
67710 -377 15 0
67710 -377 16 0
67710 377 -15 -16 0
67710 -378 15 0
67710 -378 17 0
67710 378 -15 -17 0
67710 -379 15 0
67710 -379 18 0
67710 379 -15 -18 0
67710 -380 15 0
67710 -380 19 0
67710 380 -15 -19 0
67710 -381 15 0
67710 -381 20 0
67710 381 -15 -20 0
67710 -382 15 0
67710 -382 21 0
67710 382 -15 -21 0
67710 -383 15 0
67710 -383 22 0
67710 383 -15 -22 0
67710 -384 15 0
67710 -384 23 0
67710 384 -15 -23 0
67710 -385 15 0
67710 -385 24 0
67710 385 -15 -24 0
67710 -386 15 0
67710 -386 25 0
67710 386 -15 -25 0
67710 -387 15 0
67710 -387 26 0
67710 387 -15 -26 0
67710 -388 15 0
67710 -388 27 0
67710 388 -15 -27 0
67710 -389 15 0
67710 -389 28 0
67710 389 -15 -28 0
67710 -390 15 0
67710 -390 29 0
67710 390 -15 -29 0
67710 -391 15 0
67710 -391 30 0
67710 391 -15 -30 0
67710 -392 15 0
67710 -392 31 0
67710 392 -15 -31 0
67710 -393 15 0
67710 -393 32 0
67710 393 -15 -32 0
67710 -394 16 0
67710 -394 17 0
67710 394 -16 -17 0
67710 -395 16 0
67710 -395 18 0
67710 395 -16 -18 0
67710 -396 16 0
67710 -396 19 0
67710 396 -16 -19 0
67710 -397 16 0
67710 -397 20 0
67710 397 -16 -20 0
67710 -398 16 0
67710 -398 21 0
67710 398 -16 -21 0
67710 -399 16 0
67710 -399 22 0
67710 399 -16 -22 0
67710 -400 16 0
67710 -400 23 0
67710 400 -16 -23 0
67710 -401 16 0
67710 -401 24 0
67710 401 -16 -24 0
67710 -402 16 0
67710 -402 25 0
67710 402 -16 -25 0
67710 -403 16 0
67710 -403 26 0
67710 403 -16 -26 0
67710 -404 16 0
67710 -404 27 0
67710 404 -16 -27 0
67710 -405 16 0
67710 -405 28 0
67710 405 -16 -28 0
67710 -406 16 0
67710 -406 29 0
67710 406 -16 -29 0
67710 -407 16 0
67710 -407 30 0
67710 407 -16 -30 0
67710 -408 16 0
67710 -408 31 0
67710 408 -16 -31 0
67710 -409 16 0
67710 -409 32 0
67710 409 -16 -32 0
67710 -410 17 0
67710 -410 18 0
67710 410 -17 -18 0
67710 -411 17 0
67710 -411 19 0
67710 411 -17 -19 0
67710 -412 17 0
67710 -412 20 0
67710 412 -17 -20 0
67710 -413 17 0
67710 -413 21 0
67710 413 -17 -21 0
67710 -414 17 0
67710 -414 22 0
67710 414 -17 -22 0
67710 -415 17 0
67710 -415 23 0
67710 415 -17 -23 0
67710 -416 17 0
67710 -416 24 0
67710 416 -17 -24 0
67710 -417 17 0
67710 -417 25 0
67710 417 -17 -25 0
67710 -418 17 0
67710 -418 26 0
67710 418 -17 -26 0
67710 -419 17 0
67710 -419 27 0
67710 419 -17 -27 0
67710 -420 17 0
67710 -420 28 0
67710 420 -17 -28 0
67710 -421 17 0
67710 -421 29 0
67710 421 -17 -29 0
67710 -422 17 0
67710 -422 30 0
67710 422 -17 -30 0
67710 -423 17 0
67710 -423 31 0
67710 423 -17 -31 0
67710 -424 17 0
67710 -424 32 0
67710 424 -17 -32 0
67710 -425 18 0
67710 -425 19 0
67710 425 -18 -19 0
67710 -426 18 0
67710 -426 20 0
67710 426 -18 -20 0
67710 -427 18 0
67710 -427 21 0
67710 427 -18 -21 0
67710 -428 18 0
67710 -428 22 0
67710 428 -18 -22 0
67710 -429 18 0
67710 -429 23 0
67710 429 -18 -23 0
67710 -430 18 0
67710 -430 24 0
67710 430 -18 -24 0
67710 -431 18 0
67710 -431 25 0
67710 431 -18 -25 0
67710 -432 18 0
67710 -432 26 0
67710 432 -18 -26 0
67710 -433 18 0
67710 -433 27 0
67710 433 -18 -27 0
67710 -434 18 0
67710 -434 28 0
67710 434 -18 -28 0
67710 -435 18 0
67710 -435 29 0
67710 435 -18 -29 0
67710 -436 18 0
67710 -436 30 0
67710 436 -18 -30 0
67710 -437 18 0
67710 -437 31 0
67710 437 -18 -31 0
67710 -438 18 0
67710 -438 32 0
67710 438 -18 -32 0
67710 -439 19 0
67710 -439 20 0
67710 439 -19 -20 0
67710 -440 19 0
67710 -440 21 0
67710 440 -19 -21 0
67710 -441 19 0
67710 -441 22 0
67710 441 -19 -22 0
67710 -442 19 0
67710 -442 23 0
67710 442 -19 -23 0
67710 -443 19 0
67710 -443 24 0
67710 443 -19 -24 0
67710 -444 19 0
67710 -444 25 0
67710 444 -19 -25 0
67710 -445 19 0
67710 -445 26 0
67710 445 -19 -26 0
67710 -446 19 0
67710 -446 27 0
67710 446 -19 -27 0
67710 -447 19 0
67710 -447 28 0
67710 447 -19 -28 0
67710 -448 19 0
67710 -448 29 0
67710 448 -19 -29 0
67710 -449 19 0
67710 -449 30 0
67710 449 -19 -30 0
67710 -450 19 0
67710 -450 31 0
67710 450 -19 -31 0
67710 -451 19 0
67710 -451 32 0
67710 451 -19 -32 0
67710 -452 20 0
67710 -452 21 0
67710 452 -20 -21 0
67710 -453 20 0
67710 -453 22 0
67710 453 -20 -22 0
67710 -454 20 0
67710 -454 23 0
67710 454 -20 -23 0
67710 -455 20 0
67710 -455 24 0
67710 455 -20 -24 0
67710 -456 20 0
67710 -456 25 0
67710 456 -20 -25 0
67710 -457 20 0
67710 -457 26 0
67710 457 -20 -26 0
67710 -458 20 0
67710 -458 27 0
67710 458 -20 -27 0
67710 -459 20 0
67710 -459 28 0
67710 459 -20 -28 0
67710 -460 20 0
67710 -460 29 0
67710 460 -20 -29 0
67710 -461 20 0
67710 -461 30 0
67710 461 -20 -30 0
67710 -462 20 0
67710 -462 31 0
67710 462 -20 -31 0
67710 -463 20 0
67710 -463 32 0
67710 463 -20 -32 0
67710 -464 21 0
67710 -464 22 0
67710 464 -21 -22 0
67710 -465 21 0
67710 -465 23 0
67710 465 -21 -23 0
67710 -466 21 0
67710 -466 24 0
67710 466 -21 -24 0
67710 -467 21 0
67710 -467 25 0
67710 467 -21 -25 0
67710 -468 21 0
67710 -468 26 0
67710 468 -21 -26 0
67710 -469 21 0
67710 -469 27 0
67710 469 -21 -27 0
67710 -470 21 0
67710 -470 28 0
67710 470 -21 -28 0
67710 -471 21 0
67710 -471 29 0
67710 471 -21 -29 0
67710 -472 21 0
67710 -472 30 0
67710 472 -21 -30 0
67710 -473 21 0
67710 -473 31 0
67710 473 -21 -31 0
67710 -474 21 0
67710 -474 32 0
67710 474 -21 -32 0
67710 -475 22 0
67710 -475 23 0
67710 475 -22 -23 0
67710 -476 22 0
67710 -476 24 0
67710 476 -22 -24 0
67710 -477 22 0
67710 -477 25 0
67710 477 -22 -25 0
67710 -478 22 0
67710 -478 26 0
67710 478 -22 -26 0
67710 -479 22 0
67710 -479 27 0
67710 479 -22 -27 0
67710 -480 22 0
67710 -480 28 0
67710 480 -22 -28 0
67710 -481 22 0
67710 -481 29 0
67710 481 -22 -29 0
67710 -482 22 0
67710 -482 30 0
67710 482 -22 -30 0
67710 -483 22 0
67710 -483 31 0
67710 483 -22 -31 0
67710 -484 22 0
67710 -484 32 0
67710 484 -22 -32 0
67710 -485 23 0
67710 -485 24 0
67710 485 -23 -24 0
67710 -486 23 0
67710 -486 25 0
67710 486 -23 -25 0
67710 -487 23 0
67710 -487 26 0
67710 487 -23 -26 0
67710 -488 23 0
67710 -488 27 0
67710 488 -23 -27 0
67710 -489 23 0
67710 -489 28 0
67710 489 -23 -28 0
67710 -490 23 0
67710 -490 29 0
67710 490 -23 -29 0
67710 -491 23 0
67710 -491 30 0
67710 491 -23 -30 0
67710 -492 23 0
67710 -492 31 0
67710 492 -23 -31 0
67710 -493 23 0
67710 -493 32 0
67710 493 -23 -32 0
67710 -494 24 0
67710 -494 25 0
67710 494 -24 -25 0
67710 -495 24 0
67710 -495 26 0
67710 495 -24 -26 0
67710 -496 24 0
67710 -496 27 0
67710 496 -24 -27 0
67710 -497 24 0
67710 -497 28 0
67710 497 -24 -28 0
67710 -498 24 0
67710 -498 29 0
67710 498 -24 -29 0
67710 -499 24 0
67710 -499 30 0
67710 499 -24 -30 0
67710 -500 24 0
67710 -500 31 0
67710 500 -24 -31 0
67710 -501 24 0
67710 -501 32 0
67710 501 -24 -32 0
67710 -502 25 0
67710 -502 26 0
67710 502 -25 -26 0
67710 -503 25 0
67710 -503 27 0
67710 503 -25 -27 0
67710 -504 25 0
67710 -504 28 0
67710 504 -25 -28 0
67710 -505 25 0
67710 -505 29 0
67710 505 -25 -29 0
67710 -506 25 0
67710 -506 30 0
67710 506 -25 -30 0
67710 -507 25 0
67710 -507 31 0
67710 507 -25 -31 0
67710 -508 25 0
67710 -508 32 0
67710 508 -25 -32 0
67710 -509 26 0
67710 -509 27 0
67710 509 -26 -27 0
67710 -510 26 0
67710 -510 28 0
67710 510 -26 -28 0
67710 -511 26 0
67710 -511 29 0
67710 511 -26 -29 0
67710 -512 26 0
67710 -512 30 0
67710 512 -26 -30 0
67710 -513 26 0
67710 -513 31 0
67710 513 -26 -31 0
67710 -514 26 0
67710 -514 32 0
67710 514 -26 -32 0
67710 -515 27 0
67710 -515 28 0
67710 515 -27 -28 0
67710 -516 27 0
67710 -516 29 0
67710 516 -27 -29 0
67710 -517 27 0
67710 -517 30 0
67710 517 -27 -30 0
67710 -518 27 0
67710 -518 31 0
67710 518 -27 -31 0
67710 -519 27 0
67710 -519 32 0
67710 519 -27 -32 0
67710 -520 28 0
67710 -520 29 0
67710 520 -28 -29 0
67710 -521 28 0
67710 -521 30 0
67710 521 -28 -30 0
67710 -522 28 0
67710 -522 31 0
67710 522 -28 -31 0
67710 -523 28 0
67710 -523 32 0
67710 523 -28 -32 0
67710 -524 29 0
67710 -524 30 0
67710 524 -29 -30 0
67710 -525 29 0
67710 -525 31 0
67710 525 -29 -31 0
67710 -526 29 0
67710 -526 32 0
67710 526 -29 -32 0
67710 -527 30 0
67710 -527 31 0
67710 527 -30 -31 0
67710 -528 30 0
67710 -528 32 0
67710 528 -30 -32 0
67710 -529 31 0
67710 -529 32 0
67710 529 -31 -32 0
35235 1 0
67700 -1 0
70732 34 0
67700 -34 0
58426 35 0
67700 -35 0
76490 36 0
67700 -36 0
68694 37 0
67700 -37 0
65354 38 0
67700 -38 0
44804 39 0
67700 -39 0
84096 40 0
67700 -40 0
73164 41 0
67700 -41 0
70176 42 0
67700 -42 0
68760 43 0
67700 -43 0
53618 44 0
67700 -44 0
65248 45 0
67700 -45 0
82908 46 0
67700 -46 0
68626 47 0
67700 -47 0
47884 48 0
67700 -48 0
68668 49 0
67700 -49 0
78390 50 0
67700 -50 0
62130 51 0
67700 -51 0
68322 52 0
67700 -52 0
75558 53 0
67700 -53 0
71766 54 0
67700 -54 0
80378 55 0
67700 -55 0
65956 56 0
67700 -56 0
63568 57 0
67700 -57 0
59204 58 0
67700 -58 0
72396 59 0
67700 -59 0
64982 60 0
67700 -60 0
63688 61 0
67700 -61 0
63900 62 0
67700 -62 0
65682 63 0
67700 -63 0
68184 64 0
67700 -64 0
47679 2 0
67700 -2 0
54988 65 0
67700 -65 0
64938 66 0
67700 -66 0
74032 67 0
67700 -67 0
78656 68 0
67700 -68 0
72314 69 0
67700 -69 0
53218 70 0
67700 -70 0
71138 71 0
67700 -71 0
65722 72 0
67700 -72 0
70972 73 0
67700 -73 0
67004 74 0
67700 -74 0
69332 75 0
67700 -75 0
66970 76 0
67700 -76 0
60588 77 0
67700 -77 0
63126 78 0
67700 -78 0
66506 79 0
67700 -79 0
68232 80 0
67700 -80 0
61864 81 0
67700 -81 0
63244 82 0
67700 -82 0
68086 83 0
67700 -83 0
61668 84 0
67700 -84 0
75188 85 0
67700 -85 0
59378 86 0
67700 -86 0
63444 87 0
67700 -87 0
67192 88 0
67700 -88 0
67484 89 0
67700 -89 0
75648 90 0
67700 -90 0
66220 91 0
67700 -91 0
69258 92 0
67700 -92 0
66544 93 0
67700 -93 0
67986 94 0
67700 -94 0
33637 3 0
67700 -3 0
55392 95 0
67700 -95 0
78018 96 0
67700 -96 0
78490 97 0
67700 -97 0
56740 98 0
67700 -98 0
54234 99 0
67700 -99 0
85222 100 0
67700 -100 0
58848 101 0
67700 -101 0
79132 102 0
67700 -102 0
80500 103 0
67700 -103 0
78392 104 0
67700 -104 0
79234 105 0
67700 -105 0
65242 106 0
67700 -106 0
62900 107 0
67700 -107 0
58748 108 0
67700 -108 0
68354 109 0
67700 -109 0
68350 110 0
67700 -110 0
74864 111 0
67700 -111 0
74034 112 0
67700 -112 0
71406 113 0
67700 -113 0
76454 114 0
67700 -114 0
70232 115 0
67700 -115 0
58338 116 0
67700 -116 0
57026 117 0
67700 -117 0
70818 118 0
67700 -118 0
68806 119 0
67700 -119 0
64160 120 0
67700 -120 0
58396 121 0
67700 -121 0
63992 122 0
67700 -122 0
68602 123 0
67700 -123 0
37427 4 0
67700 -4 0
70704 124 0
67700 -124 0
83490 125 0
67700 -125 0
59712 126 0
67700 -126 0
65570 127 0
67700 -127 0
70534 128 0
67700 -128 0
62340 129 0
67700 -129 0
76480 130 0
67700 -130 0
74586 131 0
67700 -131 0
71522 132 0
67700 -132 0
56294 133 0
67700 -133 0
69142 134 0
67700 -134 0
65564 135 0
67700 -135 0
59494 136 0
67700 -136 0
62304 137 0
67700 -137 0
71284 138 0
67700 -138 0
67492 139 0
67700 -139 0
66364 140 0
67700 -140 0
58316 141 0
67700 -141 0
67072 142 0
67700 -142 0
66600 143 0
67700 -143 0
64482 144 0
67700 -144 0
65546 145 0
67700 -145 0
66490 146 0
67700 -146 0
69448 147 0
67700 -147 0
71318 148 0
67700 -148 0
61518 149 0
67700 -149 0
66862 150 0
67700 -150 0
67920 151 0
67700 -151 0
52354 5 0
67700 -5 0
63324 152 0
67700 -152 0
55922 153 0
67700 -153 0
80508 154 0
67700 -154 0
54778 155 0
67700 -155 0
79934 156 0
67700 -156 0
83710 157 0
67700 -157 0
66670 158 0
67700 -158 0
61506 159 0
67700 -159 0
65762 160 0
67700 -160 0
68570 161 0
67700 -161 0
65780 162 0
67700 -162 0
66222 163 0
67700 -163 0
68644 164 0
67700 -164 0
75630 165 0
67700 -165 0
72194 166 0
67700 -166 0
72530 167 0
67700 -167 0
76830 168 0
67700 -168 0
63892 169 0
67700 -169 0
67790 170 0
67700 -170 0
70422 171 0
67700 -171 0
64636 172 0
67700 -172 0
60530 173 0
67700 -173 0
64002 174 0
67700 -174 0
69390 175 0
67700 -175 0
63776 176 0
67700 -176 0
64300 177 0
67700 -177 0
68492 178 0
67700 -178 0
43143 6 0
67700 -6 0
66084 179 0
67700 -179 0
55346 180 0
67700 -180 0
58816 181 0
67700 -181 0
68002 182 0
67700 -182 0
76112 183 0
67700 -183 0
72464 184 0
67700 -184 0
64940 185 0
67700 -185 0
68962 186 0
67700 -186 0
71278 187 0
67700 -187 0
75030 188 0
67700 -188 0
72968 189 0
67700 -189 0
66384 190 0
67700 -190 0
66272 191 0
67700 -191 0
65884 192 0
67700 -192 0
76572 193 0
67700 -193 0
65136 194 0
67700 -194 0
67482 195 0
67700 -195 0
68320 196 0
67700 -196 0
73016 197 0
67700 -197 0
70332 198 0
67700 -198 0
67680 199 0
67700 -199 0
65646 200 0
67700 -200 0
62622 201 0
67700 -201 0
70260 202 0
67700 -202 0
66432 203 0
67700 -203 0
67986 204 0
67700 -204 0
55950 7 0
67700 -7 0
79316 205 0
67700 -205 0
56526 206 0
67700 -206 0
61616 207 0
67700 -207 0
70328 208 0
67700 -208 0
72780 209 0
67700 -209 0
66718 210 0
67700 -210 0
68820 211 0
67700 -211 0
55364 212 0
67700 -212 0
68590 213 0
67700 -213 0
56740 214 0
67700 -214 0
70084 215 0
67700 -215 0
62010 216 0
67700 -216 0
77118 217 0
67700 -217 0
69958 218 0
67700 -218 0
75560 219 0
67700 -219 0
72174 220 0
67700 -220 0
65180 221 0
67700 -221 0
61840 222 0
67700 -222 0
56782 223 0
67700 -223 0
67352 224 0
67700 -224 0
69236 225 0
67700 -225 0
65396 226 0
67700 -226 0
57676 227 0
67700 -227 0
63134 228 0
67700 -228 0
68800 229 0
67700 -229 0
48727 8 0
67700 -8 0
82154 230 0
67700 -230 0
60190 231 0
67700 -231 0
72192 232 0
67700 -232 0
80878 233 0
67700 -233 0
69672 234 0
67700 -234 0
75440 235 0
67700 -235 0
60040 236 0
67700 -236 0
78490 237 0
67700 -237 0
68770 238 0
67700 -238 0
64506 239 0
67700 -239 0
61096 240 0
67700 -240 0
65534 241 0
67700 -241 0
70610 242 0
67700 -242 0
64776 243 0
67700 -243 0
62134 244 0
67700 -244 0
70420 245 0
67700 -245 0
64474 246 0
67700 -246 0
68530 247 0
67700 -247 0
66488 248 0
67700 -248 0
72254 249 0
67700 -249 0
63920 250 0
67700 -250 0
62974 251 0
67700 -251 0
65072 252 0
67700 -252 0
68338 253 0
67700 -253 0
66820 9 0
67700 -9 0
79310 254 0
67700 -254 0
70248 255 0
67700 -255 0
61246 256 0
67700 -256 0
55972 257 0
67700 -257 0
56086 258 0
67700 -258 0
64004 259 0
67700 -259 0
72168 260 0
67700 -260 0
69444 261 0
67700 -261 0
64684 262 0
67700 -262 0
60670 263 0
67700 -263 0
67666 264 0
67700 -264 0
64736 265 0
67700 -265 0
74370 266 0
67700 -266 0
61776 267 0
67700 -267 0
58938 268 0
67700 -268 0
70558 269 0
67700 -269 0
73310 270 0
67700 -270 0
60550 271 0
67700 -271 0
73404 272 0
67700 -272 0
66810 273 0
67700 -273 0
72702 274 0
67700 -274 0
66972 275 0
67700 -275 0
67854 276 0
67700 -276 0
41211 10 0
67700 -10 0
63658 277 0
67700 -277 0
75742 278 0
67700 -278 0
63984 279 0
67700 -279 0
78246 280 0
67700 -280 0
74978 281 0
67700 -281 0
80188 282 0
67700 -282 0
66506 283 0
67700 -283 0
64464 284 0
67700 -284 0
66978 285 0
67700 -285 0
56926 286 0
67700 -286 0
72748 287 0
67700 -287 0
62764 288 0
67700 -288 0
66740 289 0
67700 -289 0
64668 290 0
67700 -290 0
68766 291 0
67700 -291 0
72822 292 0
67700 -292 0
66854 293 0
67700 -293 0
67172 294 0
67700 -294 0
65410 295 0
67700 -295 0
69676 296 0
67700 -296 0
69402 297 0
67700 -297 0
67282 298 0
67700 -298 0
53923 11 0
67700 -11 0
66106 299 0
67700 -299 0
70388 300 0
67700 -300 0
65000 301 0
67700 -301 0
61018 302 0
67700 -302 0
70798 303 0
67700 -303 0
67942 304 0
67700 -304 0
70252 305 0
67700 -305 0
63692 306 0
67700 -306 0
68150 307 0
67700 -307 0
60444 308 0
67700 -308 0
64568 309 0
67700 -309 0
74436 310 0
67700 -310 0
68968 311 0
67700 -311 0
63550 312 0
67700 -312 0
68344 313 0
67700 -313 0
76132 314 0
67700 -314 0
69524 315 0
67700 -315 0
65290 316 0
67700 -316 0
71822 317 0
67700 -317 0
70808 318 0
67700 -318 0
66974 319 0
67700 -319 0
71772 12 0
67700 -12 0
51504 320 0
67700 -320 0
70426 321 0
67700 -321 0
65090 322 0
67700 -322 0
58950 323 0
67700 -323 0
73510 324 0
67700 -324 0
67952 325 0
67700 -325 0
68626 326 0
67700 -326 0
63194 327 0
67700 -327 0
65954 328 0
67700 -328 0
62738 329 0
67700 -329 0
71496 330 0
67700 -330 0
65608 331 0
67700 -331 0
66484 332 0
67700 -332 0
71730 333 0
67700 -333 0
68454 334 0
67700 -334 0
69262 335 0
67700 -335 0
69244 336 0
67700 -336 0
72894 337 0
67700 -337 0
69552 338 0
67700 -338 0
67260 339 0
67700 -339 0
86729 13 0
67700 -13 0
61530 340 0
67700 -340 0
66470 341 0
67700 -341 0
73312 342 0
67700 -342 0
60740 343 0
67700 -343 0
57512 344 0
67700 -344 0
70386 345 0
67700 -345 0
68518 346 0
67700 -346 0
61178 347 0
67700 -347 0
65570 348 0
67700 -348 0
64376 349 0
67700 -349 0
64524 350 0
67700 -350 0
62890 351 0
67700 -351 0
75084 352 0
67700 -352 0
63368 353 0
67700 -353 0
76472 354 0
67700 -354 0
64928 355 0
67700 -355 0
71620 356 0
67700 -356 0
66134 357 0
67700 -357 0
68074 358 0
67700 -358 0
55701 14 0
67700 -14 0
65046 359 0
67700 -359 0
71164 360 0
67700 -360 0
69430 361 0
67700 -361 0
62614 362 0
67700 -362 0
70058 363 0
67700 -363 0
77646 364 0
67700 -364 0
58464 365 0
67700 -365 0
71652 366 0
67700 -366 0
61912 367 0
67700 -367 0
73592 368 0
67700 -368 0
65742 369 0
67700 -369 0
73700 370 0
67700 -370 0
69536 371 0
67700 -371 0
69626 372 0
67700 -372 0
71544 373 0
67700 -373 0
73470 374 0
67700 -374 0
71796 375 0
67700 -375 0
66732 376 0
67700 -376 0
87394 15 0
67700 -15 0
75216 377 0
67700 -377 0
69480 378 0
67700 -378 0
64794 379 0
67700 -379 0
69662 380 0
67700 -380 0
79030 381 0
67700 -381 0
57882 382 0
67700 -382 0
72894 383 0
67700 -383 0
70574 384 0
67700 -384 0
66784 385 0
67700 -385 0
57354 386 0
67700 -386 0
65166 387 0
67700 -387 0
64618 388 0
67700 -388 0
77904 389 0
67700 -389 0
66846 390 0
67700 -390 0
66848 391 0
67700 -391 0
63888 392 0
67700 -392 0
68624 393 0
67700 -393 0
42571 16 0
67700 -16 0
72378 394 0
67700 -394 0
81044 395 0
67700 -395 0
67016 396 0
67700 -396 0
68724 397 0
67700 -397 0
75664 398 0
67700 -398 0
69460 399 0
67700 -399 0
76066 400 0
67700 -400 0
70276 401 0
67700 -401 0
63136 402 0
67700 -402 0
62226 403 0
67700 -403 0
72054 404 0
67700 -404 0
63460 405 0
67700 -405 0
66288 406 0
67700 -406 0
63468 407 0
67700 -407 0
66812 408 0
67700 -408 0
67920 409 0
67700 -409 0
60869 17 0
67700 -17 0
58470 410 0
67700 -410 0
74372 411 0
67700 -411 0
77682 412 0
67700 -412 0
61942 413 0
67700 -413 0
60742 414 0
67700 -414 0
75314 415 0
67700 -415 0
66246 416 0
67700 -416 0
63164 417 0
67700 -417 0
59214 418 0
67700 -418 0
70712 419 0
67700 -419 0
72594 420 0
67700 -420 0
65612 421 0
67700 -421 0
62098 422 0
67700 -422 0
64020 423 0
67700 -423 0
68602 424 0
67700 -424 0
68952 18 0
67700 -18 0
73998 425 0
67700 -425 0
69130 426 0
67700 -426 0
63466 427 0
67700 -427 0
62970 428 0
67700 -428 0
65100 429 0
67700 -429 0
62442 430 0
67700 -430 0
66976 431 0
67700 -431 0
74890 432 0
67700 -432 0
62892 433 0
67700 -433 0
75150 434 0
67700 -434 0
65856 435 0
67700 -435 0
73244 436 0
67700 -436 0
67386 437 0
67700 -437 0
67766 438 0
67700 -438 0
52586 19 0
67700 -19 0
60756 439 0
67700 -439 0
69436 440 0
67700 -440 0
75144 441 0
67700 -441 0
62822 442 0
67700 -442 0
62066 443 0
67700 -443 0
70182 444 0
67700 -444 0
70244 445 0
67700 -445 0
68062 446 0
67700 -446 0
68338 447 0
67700 -447 0
66966 448 0
67700 -448 0
69112 449 0
67700 -449 0
70804 450 0
67700 -450 0
66952 451 0
67700 -451 0
43167 20 0
67700 -20 0
74618 452 0
67700 -452 0
60732 453 0
67700 -453 0
60536 454 0
67700 -454 0
64614 455 0
67700 -455 0
75468 456 0
67700 -456 0
74762 457 0
67700 -457 0
64710 458 0
67700 -458 0
63442 459 0
67700 -459 0
71678 460 0
67700 -460 0
69852 461 0
67700 -461 0
71424 462 0
67700 -462 0
66798 463 0
67700 -463 0
75673 21 0
67700 -21 0
67162 464 0
67700 -464 0
64220 465 0
67700 -465 0
68750 466 0
67700 -466 0
68014 467 0
67700 -467 0
67288 468 0
67700 -468 0
67906 469 0
67700 -469 0
72112 470 0
67700 -470 0
71410 471 0
67700 -471 0
69556 472 0
67700 -472 0
68130 473 0
67700 -473 0
67612 474 0
67700 -474 0
52131 22 0
67700 -22 0
73924 475 0
67700 -475 0
66414 476 0
67700 -476 0
70602 477 0
67700 -477 0
68334 478 0
67700 -478 0
71908 479 0
67700 -479 0
67042 480 0
67700 -480 0
69858 481 0
67700 -481 0
67772 482 0
67700 -482 0
68340 483 0
67700 -483 0
67568 484 0
67700 -484 0
57480 23 0
67700 -23 0
70594 485 0
67700 -485 0
75450 486 0
67700 -486 0
76110 487 0
67700 -487 0
59380 488 0
67700 -488 0
65278 489 0
67700 -489 0
72982 490 0
67700 -490 0
67648 491 0
67700 -491 0
69386 492 0
67700 -492 0
67282 493 0
67700 -493 0
64189 24 0
67700 -24 0
69180 494 0
67700 -494 0
72596 495 0
67700 -495 0
62110 496 0
67700 -496 0
75010 497 0
67700 -497 0
63858 498 0
67700 -498 0
73864 499 0
67700 -499 0
66598 500 0
67700 -500 0
67942 501 0
67700 -501 0
75775 25 0
67700 -25 0
64348 502 0
67700 -502 0
69436 503 0
67700 -503 0
74802 504 0
67700 -504 0
62548 505 0
67700 -505 0
64170 506 0
67700 -506 0
64366 507 0
67700 -507 0
68514 508 0
67700 -508 0
56383 26 0
67700 -26 0
73312 509 0
67700 -509 0
64932 510 0
67700 -510 0
68202 511 0
67700 -511 0
58938 512 0
67700 -512 0
64938 513 0
67700 -513 0
68382 514 0
67700 -514 0
69772 27 0
67700 -27 0
71900 515 0
67700 -515 0
67112 516 0
67700 -516 0
69090 517 0
67700 -517 0
65030 518 0
67700 -518 0
68316 519 0
67700 -519 0
43154 28 0
67700 -28 0
72484 520 0
67700 -520 0
65034 521 0
67700 -521 0
70924 522 0
67700 -522 0
66930 523 0
67700 -523 0
67744 29 0
67700 -29 0
68666 524 0
67700 -524 0
64908 525 0
67700 -525 0
68360 526 0
67700 -526 0
59247 30 0
67700 -30 0
64374 527 0
67700 -527 0
68514 528 0
67700 -528 0
70867 31 0
67700 -31 0
68712 529 0
67700 -529 0
66303 32 0
67700 -32 0
